h -1 2 0
h 3 -4 0
h 5 1 0
h -5 -6 0
h 4 -1 0
h -1 7 0
h 7 -8 1 0
1 -7 0
h 9 10 0
h -10 0
h 11 0
h 12 0
h 8 0
h 1 -9 13 0
1 -13 0
h 14 0
h -4 -3 0
h 15 -9 0
1 -15 0
h 16 0
h -17 2 0
h -2 17 0
h 18 0
h 19 0
h -2 -5 20 0
1 -20 0
h 21 22 0
h 23 0
h 9 2 0
h 24 2 0
h 25 0
h 26 -2 0
1 -26 0
h 6 27 17 0
1 -27 0
h 5 28 -6 0
h 29 0
